#P B3LYP/3-21G Opt Freq

Thiophene at B3LYP/3-21G

0   1
6        0.955475    -0.715963     0.000000
6       -0.345627    -1.092818     0.000000
16       -1.157305     0.000000     0.000000
6       -0.345627     1.092818     0.000000
6        0.955475     0.715963     0.000000
1        1.810438     1.369382     0.000000
1       -0.840307     2.046884     0.000000
1       -0.840307    -2.046884     0.000000
1        1.810438    -1.369382     0.000000


