#P B3LYP/3-21G CIS(Singlets,NStates=15) pop(full) force

FuranDFT

0   1
6        0.931612    -0.744002     0.008207
6       -0.365104    -1.082964     0.004476
8       -1.205568     0.022446    -0.008677
6       -0.331380     1.056649     0.016859
6        0.937901     0.677659     0.040935
1        1.805562     1.322230     0.045024
1       -0.888577     2.093041    -0.024997
1       -0.793197    -2.070357     0.012380
1        1.834522    -1.391592    -0.002290


