#P B3LYP/cc-pVDZ CIS(Singlets,NStates=15) pop(full) force

FuranDFT

0   1
6        0.000000    0.719103   -0.961902
6        0.000000    1.095389    0.349319
8        0.000000    0.000000    1.161761
6        0.000000   -1.095389    0.349319
6        0.000000   -0.719103   -0.961902
1        0.000000   -1.380235   -1.824827
1        0.000000   -2.057119    0.853280
1        0.000000    2.057119    0.853280
1        0.000000    1.380235   -1.824827


