#P B3LYP/3-21G CIS(Singlets,NStates=15) pop(full) force

FuranDFT

0   1
6        0.916649    -0.752452    -0.022707
6       -0.346548    -1.098378    -0.032685
8       -1.114240     0.040126     0.024192
6       -0.371766     1.071128    -0.044878
6        0.907262     0.734299    -0.006172
1        1.787277     1.347929    -0.000431
1       -0.819295     2.013223     0.009997
1       -0.861680    -2.049664    -0.044725
1        1.770334    -1.380361     0.018319


