#P B3LYP/3-21G CIS(Singlets,NStates=15) pop(full) force

FuranDFT

0   1
6        0.966903    -0.683672     0.048334
6       -0.318890    -1.095414    -0.024242
8       -1.179346     0.015643    -0.037425
6       -0.311672     1.095879     0.042116
6        0.979242     0.758535    -0.018622
1        1.792324     1.388256    -0.047449
1       -0.857401     2.066031    -0.047219
1       -0.839161    -2.032088    -0.030008
1        1.820622    -1.382122     0.049910


