#P B3LYP/3-21G CIS(Singlets,NStates=15) pop(full) force

FuranDFT

0   1
6        0.959084    -0.706808     0.037541
6       -0.382606    -1.134975    -0.015953
8       -1.205527    -0.017532    -0.042927
6       -0.356718     1.059280    -0.017501
6        0.984290     0.670291     0.040849
1        1.809862     1.417162     0.033576
1       -0.800899     2.040817    -0.000781
1       -0.830671    -1.999299    -0.042974
1        1.791310    -1.414652    -0.030356


