#P B3LYP/3-21G CIS(Singlets,NStates=15) pop(full) force

FuranDFT

0   1
6        0.919546    -0.743135    -0.022882
6       -0.336756    -1.123186    -0.003107
8       -1.111042    -0.033650    -0.015129
6       -0.335225     1.123247    -0.009630
6        0.978390     0.698811    -0.009515
1        1.792051     1.408458     0.002828
1       -0.861999     2.096164    -0.029252
1       -0.852033    -2.049644     0.001961
1        1.841070    -1.368460     0.018606


