#P B3LYP/3-21G CIS(Singlets,NStates=15) pop(full) force

FuranDFT

0   1
6        0.916703    -0.764854    -0.036692
6       -0.385303    -1.079104    -0.027434
8       -1.145823     0.009348    -0.034570
6       -0.297599     1.049894    -0.027661
6        0.997519     0.703933     0.015072
1        1.851758     1.407431    -0.043834
1       -0.864870     2.064606     0.002045
1       -0.821943    -2.045380    -0.034806
1        1.850922    -1.385324     0.035456


