#P B3LYP/3-21G CIS(Singlets,NStates=15) pop(full) force

FuranDFT

0   1
6        0.922044    -0.708907    -0.031974
6       -0.364765    -1.095658     0.003580
8       -1.170087     0.018604    -0.006651
6       -0.302853     1.134436     0.039050
6        0.944362     0.668346    -0.030995
1        1.795833     1.333381     0.033897
1       -0.795815     2.031336     0.006513
1       -0.799087    -2.011169    -0.026388
1        1.820817    -1.378888    -0.014498


