#P B3LYP/3-21G CIS(Singlets,NStates=15) pop(full) force

FuranDFT

0   1
6        1.005023    -0.713954    -0.039660
6       -0.330550    -1.126518    -0.034537
8       -1.195048    -0.002528     0.018447
6       -0.393634     1.120285     0.040565
6        0.969310     0.668034     0.030554
1        1.823496     1.385429    -0.007888
1       -0.889182     2.054236    -0.032784
1       -0.835302    -2.034081    -0.034049
1        1.800765    -1.383794     0.033077


