#P B3LYP/3-21G CIS(Singlets,NStates=15) pop(full) force

FuranDFT

0   1
6        0.990371    -0.706295     0.034904
6       -0.394667    -1.048267    -0.044838
8       -1.168427     0.007096    -0.012138
6       -0.379112     1.081969    -0.011616
6        0.986653     0.737637     0.007625
1        1.856579     1.330928    -0.046174
1       -0.885046     2.024566    -0.039375
1       -0.816576    -2.059261    -0.038634
1        1.784504    -1.374484    -0.031393


