#P B3LYP/3-21G CIS(Singlets,NStates=15) pop(full) force

FuranDFT

0   1
6        0.912631    -0.765649    -0.041483
6       -0.384409    -1.053108    -0.017610
8       -1.127064    -0.030694    -0.003975
6       -0.375598     1.106418     0.044535
6        0.966090     0.666863     0.003823
1        1.793834     1.358896     0.029730
1       -0.795242     2.040689     0.046262
1       -0.884036    -2.074691     0.006712
1        1.770254    -1.333555     0.029003


