#P B3LYP/3-21G CIS(Singlets,NStates=15) pop(full) force

FuranDFT

0   1
6        0.977613    -0.704060     0.029521
6       -0.376517    -1.058079     0.007668
8       -1.110617    -0.011197     0.049687
6       -0.361124     1.091768    -0.005023
6        0.939092     0.764749     0.000770
1        1.801021     1.333287    -0.043332
1       -0.816375     2.052504     0.044180
1       -0.806289    -2.031435     0.007730
1        1.844830    -1.324207     0.035304


