#P B3LYP/3-21G CIS(Singlets,NStates=15) pop(full) force

FuranDFT

0   1
6        0.992465    -0.674124     0.010372
6       -0.383482    -1.109366     0.006830
8       -1.146361     0.009626    -0.043994
6       -0.375225     1.085519    -0.030383
6        0.922226     0.693301     0.016086
1        1.855739     1.379229     0.022398
1       -0.859564     2.095718     0.006809
1       -0.881874    -2.092290     0.032261
1        1.841631    -1.399196     0.032133


